
     Program PWSCF v.7.6-dev starts on 20Aug2026 at 23:59: 5 

     This program is part of the open-source Quantum ESPRESSO suite
     for quantum simulation of materials; please cite
         "P. Giannozzi et al., J. Phys.:Condens. Matter 21 395502 (2009);
         "P. Giannozzi et al., J. Phys.:Condens. Matter 29 465901 (2017);
         "P. Giannozzi et al., J. Chem. Phys. 152 154105 (2020);
          URL http://www.quantum-espresso.org", 
     in publications or presentations arising from this work. More details at
     http://www.quantum-espresso.org/quote

     Serial version
     0 MiB available memory on the printing compute node when the environment starts

     Waiting for input...
     Reading input from standard input

     Current dimensions of program PWSCF are:
     Max number of different atomic species (ntypx) = 10
     Max number of k-points (npk) =  40000
     Max angular momentum in pseudopotentials (lmaxx) =  4

     Atomic positions and unit cell read from directory:
     ./output/Si.save/



     G-vector sticks info
     --------------------
     sticks:   dense  smooth     PW     G-vecs:    dense   smooth      PW
     Sum         253     253     85                 2741     2741     531

     Using Slab Decomposition



     bravais-lattice index     =            2
     lattice parameter (alat)  =      10.2630  a.u.
     unit-cell volume          =     270.2483 (a.u.)^3
     number of atoms/cell      =            2
     number of atomic types    =            1
     number of electrons       =         8.00
     number of Kohn-Sham states=           20
     kinetic-energy cutoff     =      18.0000  Ry
     charge density cutoff     =      72.0000  Ry
     Exchange-correlation= PBE
                           (   1   4   3   4   0   0   0)

     celldm(1)=  10.263000  celldm(2)=   0.000000  celldm(3)=   0.000000
     celldm(4)=   0.000000  celldm(5)=   0.000000  celldm(6)=   0.000000

     crystal axes: (cart. coord. in units of alat)
               a(1) = (  -0.500000   0.000000   0.500000 )  
               a(2) = (   0.000000   0.500000   0.500000 )  
               a(3) = (  -0.500000   0.500000   0.000000 )  

     reciprocal axes: (cart. coord. in units 2 pi/alat)
               b(1) = ( -1.000000 -1.000000  1.000000 )  
               b(2) = (  1.000000  1.000000  1.000000 )  
               b(3) = ( -1.000000  1.000000 -1.000000 )  


     PseudoPot. # 1 for Si read from file:
     ./pseudo/Si.upf
     MD5 check sum: 02fab3f35e82123ef5bf1cb05d5b1a5e
     Pseudo is Norm-conserving + core correction, Zval =  4.0
     Generated using ONCVPSP code by D. R. Hamann
     Using radial grid of 1510 points,  6 beta functions with: 
                l(1) =   0
                l(2) =   0
                l(3) =   1
                l(4) =   1
                l(5) =   2
                l(6) =   2

     atomic species   valence    mass     pseudopotential
     Si                4.00    28.08600     Si( 1.00)

     48 Sym. Ops., with inversion, found (24 have fractional translation)



   Cartesian axes

     site n.     atom                  positions (alat units)
         1        Si     tau(   1) = (   0.0000000   0.0000000   0.0000000  )
         2        Si     tau(   2) = (   0.2500000   0.2500000   0.2500000  )

     number of k points=    81
                       cart. coord. in units 2pi/alat
        k(    1) = (  -0.5000000   0.5000000   0.5000000), wk =   0.0246914
        k(    2) = (  -0.4750000   0.4750000   0.4750000), wk =   0.0246914
        k(    3) = (  -0.4500000   0.4500000   0.4500000), wk =   0.0246914
        k(    4) = (  -0.4250000   0.4250000   0.4250000), wk =   0.0246914
        k(    5) = (  -0.4000000   0.4000000   0.4000000), wk =   0.0246914
        k(    6) = (  -0.3750000   0.3750000   0.3750000), wk =   0.0246914
        k(    7) = (  -0.3500000   0.3500000   0.3500000), wk =   0.0246914
        k(    8) = (  -0.3250000   0.3250000   0.3250000), wk =   0.0246914
        k(    9) = (  -0.3000000   0.3000000   0.3000000), wk =   0.0246914
        k(   10) = (  -0.2750000   0.2750000   0.2750000), wk =   0.0246914
        k(   11) = (  -0.2500000   0.2500000   0.2500000), wk =   0.0246914
        k(   12) = (  -0.2250000   0.2250000   0.2250000), wk =   0.0246914
        k(   13) = (  -0.2000000   0.2000000   0.2000000), wk =   0.0246914
        k(   14) = (  -0.1750000   0.1750000   0.1750000), wk =   0.0246914
        k(   15) = (  -0.1500000   0.1500000   0.1500000), wk =   0.0246914
        k(   16) = (  -0.1250000   0.1250000   0.1250000), wk =   0.0246914
        k(   17) = (  -0.1000000   0.1000000   0.1000000), wk =   0.0246914
        k(   18) = (  -0.0750000   0.0750000   0.0750000), wk =   0.0246914
        k(   19) = (  -0.0500000   0.0500000   0.0500000), wk =   0.0246914
        k(   20) = (  -0.0250000   0.0250000   0.0250000), wk =   0.0246914
        k(   21) = (   0.0000000   0.0000000   0.0000000), wk =   0.0246914
        k(   22) = (  -0.0500000   0.0000000   0.0000000), wk =   0.0246914
        k(   23) = (  -0.1000000   0.0000000   0.0000000), wk =   0.0246914
        k(   24) = (  -0.1500000   0.0000000   0.0000000), wk =   0.0246914
        k(   25) = (  -0.2000000   0.0000000   0.0000000), wk =   0.0246914
        k(   26) = (  -0.2500000   0.0000000   0.0000000), wk =   0.0246914
        k(   27) = (  -0.3000000   0.0000000   0.0000000), wk =   0.0246914
        k(   28) = (  -0.3500000   0.0000000   0.0000000), wk =   0.0246914
        k(   29) = (  -0.4000000   0.0000000   0.0000000), wk =   0.0246914
        k(   30) = (  -0.4500000   0.0000000   0.0000000), wk =   0.0246914
        k(   31) = (  -0.5000000   0.0000000   0.0000000), wk =   0.0246914
        k(   32) = (  -0.5500000   0.0000000   0.0000000), wk =   0.0246914
        k(   33) = (  -0.6000000   0.0000000   0.0000000), wk =   0.0246914
        k(   34) = (  -0.6500000   0.0000000   0.0000000), wk =   0.0246914
        k(   35) = (  -0.7000000   0.0000000   0.0000000), wk =   0.0246914
        k(   36) = (  -0.7500000   0.0000000   0.0000000), wk =   0.0246914
        k(   37) = (  -0.8000000   0.0000000   0.0000000), wk =   0.0246914
        k(   38) = (  -0.8500000   0.0000000   0.0000000), wk =   0.0246914
        k(   39) = (  -0.9000000   0.0000000   0.0000000), wk =   0.0246914
        k(   40) = (  -0.9500000   0.0000000   0.0000000), wk =   0.0246914
        k(   41) = (  -1.0000000   0.0000000   0.0000000), wk =   0.0246914
        k(   42) = (  -0.9875000   0.0375000   0.0000000), wk =   0.0246914
        k(   43) = (  -0.9750000   0.0750000   0.0000000), wk =   0.0246914
        k(   44) = (  -0.9625000   0.1125000   0.0000000), wk =   0.0246914
        k(   45) = (  -0.9500000   0.1500000   0.0000000), wk =   0.0246914
        k(   46) = (  -0.9375000   0.1875000   0.0000000), wk =   0.0246914
        k(   47) = (  -0.9250000   0.2250000   0.0000000), wk =   0.0246914
        k(   48) = (  -0.9125000   0.2625000   0.0000000), wk =   0.0246914
        k(   49) = (  -0.9000000   0.3000000   0.0000000), wk =   0.0246914
        k(   50) = (  -0.8875000   0.3375000   0.0000000), wk =   0.0246914
        k(   51) = (  -0.8750000   0.3750000   0.0000000), wk =   0.0246914
        k(   52) = (  -0.8625000   0.4125000   0.0000000), wk =   0.0246914
        k(   53) = (  -0.8500000   0.4500000   0.0000000), wk =   0.0246914
        k(   54) = (  -0.8375000   0.4875000   0.0000000), wk =   0.0246914
        k(   55) = (  -0.8250000   0.5250000   0.0000000), wk =   0.0246914
        k(   56) = (  -0.8125000   0.5625000   0.0000000), wk =   0.0246914
        k(   57) = (  -0.8000000   0.6000000   0.0000000), wk =   0.0246914
        k(   58) = (  -0.7875000   0.6375000   0.0000000), wk =   0.0246914
        k(   59) = (  -0.7750000   0.6750000   0.0000000), wk =   0.0246914
        k(   60) = (  -0.7625000   0.7125000   0.0000000), wk =   0.0246914
        k(   61) = (  -0.7500000   0.7500000   0.0000000), wk =   0.0246914
        k(   62) = (  -0.7125000   0.7125000   0.0000000), wk =   0.0246914
        k(   63) = (  -0.6750000   0.6750000   0.0000000), wk =   0.0246914
        k(   64) = (  -0.6375000   0.6375000   0.0000000), wk =   0.0246914
        k(   65) = (  -0.6000000   0.6000000   0.0000000), wk =   0.0246914
        k(   66) = (  -0.5625000   0.5625000   0.0000000), wk =   0.0246914
        k(   67) = (  -0.5250000   0.5250000   0.0000000), wk =   0.0246914
        k(   68) = (  -0.4875000   0.4875000   0.0000000), wk =   0.0246914
        k(   69) = (  -0.4500000   0.4500000   0.0000000), wk =   0.0246914
        k(   70) = (  -0.4125000   0.4125000   0.0000000), wk =   0.0246914
        k(   71) = (  -0.3750000   0.3750000   0.0000000), wk =   0.0246914
        k(   72) = (  -0.3375000   0.3375000   0.0000000), wk =   0.0246914
        k(   73) = (  -0.3000000   0.3000000   0.0000000), wk =   0.0246914
        k(   74) = (  -0.2625000   0.2625000   0.0000000), wk =   0.0246914
        k(   75) = (  -0.2250000   0.2250000   0.0000000), wk =   0.0246914
        k(   76) = (  -0.1875000   0.1875000   0.0000000), wk =   0.0246914
        k(   77) = (  -0.1500000   0.1500000   0.0000000), wk =   0.0246914
        k(   78) = (  -0.1125000   0.1125000   0.0000000), wk =   0.0246914
        k(   79) = (  -0.0750000   0.0750000   0.0000000), wk =   0.0246914
        k(   80) = (  -0.0375000   0.0375000   0.0000000), wk =   0.0246914
        k(   81) = (   0.0000000   0.0000000   0.0000000), wk =   0.0246914

     Dense  grid:     2741 G-vectors     FFT dimensions: (  20,  20,  20)

     Estimated max dynamical RAM per process >       2.12 MB

     The potential is recalculated from file :
     ./output/Si.save/charge-density

     Starting wfcs are    8 randomized atomic wfcs +   12 random wfcs

     Band Structure Calculation
     CG style diagonalization

     ethr =  1.25E-08,  avg # of iterations = 27.1

     total cpu time spent up to now is       11.5 secs

     End of band structure calculation

          k =-0.5000 0.5000 0.5000 (   344 PWs)   bands (ev):

    -3.3995  -0.7427   5.0309   5.0309   7.7762   9.5953   9.5953  13.9730
    16.9400  16.9400  17.6123  17.6190  17.6190  19.2355  25.7870  26.2839
    28.0226  28.0226  28.2492  28.2492

          k =-0.4750 0.4750 0.4750 (   344 PWs)   bands (ev):

    -3.4350  -0.6917   5.0354   5.0354   7.7814   9.6004   9.6004  13.9809
    16.6596  16.6596  17.4769  17.9189  17.9189  19.3635  25.2271  26.8715
    27.4714  27.4714  28.7688  28.7688

          k =-0.4500 0.4500 0.4500 (   350 PWs)   bands (ev):

    -3.5349  -0.5467   5.0489   5.0489   7.7962   9.6155   9.6155  14.0027
    16.2046  16.2046  17.1551  18.4204  18.4204  19.6558  24.5167  26.8083
    26.8083  27.6686  29.3129  29.3129

          k =-0.4250 0.4250 0.4250 (   353 PWs)   bands (ev):

    -3.6806  -0.3246   5.0713   5.0713   7.8277   9.6391   9.6391  14.0387
    15.7376  15.7376  16.7596  18.9659  18.9659  19.9814  23.8774  26.1431
    26.1431  28.4926  29.7768  29.7768

          k =-0.4000 0.4000 0.4000 (   353 PWs)   bands (ev):

    -3.8534  -0.0442   5.1029   5.1029   7.8631   9.6698   9.6698  14.0825
    15.3018  15.3018  16.3425  19.5315  19.5315  20.2393  23.3469  25.4932
    25.4932  29.2751  30.1168  30.1332

          k =-0.3750 0.3750 0.3750 (   353 PWs)   bands (ev):

    -4.0399   0.2804   5.1434   5.1434   7.9085   9.7042   9.7042  14.1230
    14.8939  14.8939  15.9338  20.0979  20.0979  20.3117  23.0407  24.8719
    24.8719  29.2553  30.3036  30.3720

          k =-0.3500 0.3500 0.3500 (   353 PWs)   bands (ev):

    -4.2305   0.6391   5.1927   5.1927   7.9635   9.7383   9.7383  14.1354
    14.5204  14.5204  15.5656  20.1136  20.6418  20.6418  23.0363  24.3037
    24.3037  28.6168  30.5111  30.5111

          k =-0.3250 0.3250 0.3250 (   344 PWs)   bands (ev):

    -4.4178   1.0251   5.2510   5.2510   8.0301   9.7686   9.7686  14.0697
    14.1901  14.1901  15.2942  19.7026  21.1193  21.1193  23.2858  23.8446
    23.8446  27.9697  30.5945  30.5945

          k =-0.3000 0.3000 0.3000 (   350 PWs)   bands (ev):

    -4.5996   1.4326   5.3171   5.3171   8.1012   9.7830   9.7830  13.8667
    13.8991  13.8991  15.1660  19.1829  21.3826  21.3826  23.6136  23.6136
    23.6466  27.3432  30.6101  30.6101

          k =-0.2750 0.2750 0.2750 (   350 PWs)   bands (ev):

    -4.7719   1.8593   5.3915   5.3915   8.1821   9.7799   9.7799  13.5419
    13.6690  13.6690  15.1712  18.6349  21.3107  21.3107  23.7594  23.7594
    24.0370  26.7775  30.5969  30.5969

          k =-0.2500 0.2500 0.2500 (   350 PWs)   bands (ev):

    -4.9327   2.3016   5.4732   5.4732   8.2700   9.7512   9.7512  13.1489
    13.5003  13.5003  15.2451  18.1009  20.9760  20.9760  24.2017  24.2017
    24.3558  26.3434  30.5656  30.5656

          k =-0.2250 0.2250 0.2250 (   350 PWs)   bands (ev):

    -5.0807   2.7566   5.5614   5.5614   8.3634   9.6928   9.6928  12.7233
    13.3966  13.3966  15.3356  17.6151  20.5320  20.5320  24.4330  24.7868
    24.7868  26.1967  30.5248  30.5248

          k =-0.2000 0.2000 0.2000 (   341 PWs)   bands (ev):

    -5.2147   3.2230   5.6551   5.6551   8.4612   9.6063   9.6063  12.2830
    13.3686  13.3686  15.3950  17.2178  20.0630  20.0630  24.1788  25.4407
    25.4407  26.3993  30.5038  30.5038

          k =-0.1750 0.1750 0.1750 (   344 PWs)   bands (ev):

    -5.3344   3.6938   5.7523   5.7523   8.5553   9.4933   9.4933  11.8331
    13.3848  13.3848  15.3656  16.9674  19.5868  19.5868  23.7722  26.1204
    26.1204  26.8049  30.4604  30.4604

          k =-0.1500 0.1500 0.1500 (   338 PWs)   bands (ev):

    -5.4384   4.1672   5.8512   5.8512   8.6536   9.3636   9.3636  11.3827
    13.4562  13.4562  15.2159  16.8948  19.1367  19.1367  23.3265  26.8213
    26.8213  27.2872  30.4301  30.4301

          k =-0.1250 0.1250 0.1250 (   335 PWs)   bands (ev):

    -5.5272   4.6356   5.9485   5.9485   8.7407   9.2271   9.2271  10.9394
    13.5636  13.5636  14.9853  16.9620  18.7116  18.7116  22.8908  27.5162
    27.5162  27.7932  30.4048  30.4048

          k =-0.1000 0.1000 0.1000 (   335 PWs)   bands (ev):

    -5.6005   5.0900   6.0400   6.0400   8.8119   9.0937   9.0937  10.5151
    13.6918  13.6918  14.7371  17.0970  18.3286  18.3286  22.4909  28.1785
    28.1785  28.2959  30.3994  30.3994

          k =-0.0750 0.0750 0.0750 (   335 PWs)   bands (ev):

    -5.6577   5.5143   6.1207   6.1207   8.8564   8.9748   8.9748  10.1325
    13.8252  13.8252  14.5158  17.2516  18.0012  18.0012  22.1466  28.7736
    28.7798  28.7798  30.4295  30.4295

          k =-0.0500 0.0500 0.0500 (   335 PWs)   bands (ev):

    -5.6986   5.8807   6.1848   6.1848   8.8600   8.8806   8.8806   9.8286
    13.9444  13.9444  14.3448  17.3913  17.7457  17.7457  21.8776  29.1951
    29.2576  29.2576  30.5219  30.5219

          k =-0.0250 0.0250 0.0250 (   335 PWs)   bands (ev):

    -5.7232   6.1428   6.2263   6.2263   8.8199   8.8199   8.8245   9.6439
    14.0280  14.0280  14.2376  17.4888  17.5811  17.5811  21.7046  29.5063
    29.5409  29.5409  30.6767  30.6767

          k = 0.0000 0.0000 0.0000 (   339 PWs)   bands (ev):

    -5.7322   6.2396   6.2396   6.2396   8.7988   8.7988   8.7988   9.5859
    14.0584  14.0584  14.2001  17.5213  17.5213  17.5213  21.6445  29.6020
    29.6020  29.6020  30.7681  30.7681

          k =-0.0500 0.0000 0.0000 (   335 PWs)   bands (ev):

    -5.7205   6.1659   6.1933   6.1933   8.7719   8.8599   8.8599   9.6590
    13.9665  14.0706  14.2497  17.5433  17.5433  17.5892  21.7252  29.4392
    29.4392  29.6389  30.6167  30.6483

          k =-0.1000 0.0000 0.0000 (   335 PWs)   bands (ev):

    -5.6877   5.9594   6.0632   6.0632   8.6942   9.0308   9.0308   9.8568
    13.7212  14.1071  14.3923  17.6011  17.6011  17.7606  21.9638  28.9731
    28.9731  29.6794  30.2121  30.3539

          k =-0.1500 0.0000 0.0000 (   335 PWs)   bands (ev):

    -5.6330   5.6591   5.8769   5.8769   8.5742   9.2849   9.2849  10.1298
    13.3910  14.1681  14.6202  17.6974  17.6974  17.9911  22.3502  28.3690
    28.3690  29.6484  29.7484  29.9701

          k =-0.2000 0.0000 0.0000 (   335 PWs)   bands (ev):

    -5.5566   5.2992   5.6591   5.6591   8.4229   9.5971   9.5971  10.4146
    13.0552  14.2535  14.9218  17.8319  17.8319  18.2457  22.8666  27.7044
    27.7044  28.9985  29.5395  29.8477

          k =-0.2500 0.0000 0.0000 (   339 PWs)   bands (ev):

    -5.4589   4.9025   5.4274   5.4274   8.2501   9.9490   9.9490  10.6220
    12.8072  14.3632  15.2849  18.0037  18.0037  18.5038  23.4899  27.0136
    27.0136  28.3058  29.0698  29.9796

          k =-0.3000 0.0000 0.0000 (   339 PWs)   bands (ev):

    -5.3393   4.4840   5.1930   5.1930   8.0680  10.3297  10.3297  10.6479
    12.7734  14.4972  15.6989  18.2120  18.2120  18.7743  24.1951  26.3212
    26.3212  27.5945  28.5985  30.1486

          k =-0.3500 0.0000 0.0000 (   347 PWs)   bands (ev):

    -5.1991   4.0499   4.9628   4.9628   7.8835  10.4640  10.7275  10.7275
    12.9821  14.6501  16.1533  18.4497  18.4497  19.0591  24.9572  25.6267
    25.6267  26.8634  28.1188  30.3576

          k =-0.4000 0.0000 0.0000 (   347 PWs)   bands (ev):

    -5.0370   3.6091   4.7419   4.7419   7.7033  10.1436  11.1442  11.1442
    13.3553  14.8324  16.6397  18.7220  18.7220  19.3589  24.9617  24.9617
    25.7517  26.1516  27.6381  30.6226

          k =-0.4500 0.0000 0.0000 (   347 PWs)   bands (ev):

    -4.8541   3.1631   4.5332   4.5332   7.5321   9.7719  11.5732  11.5732
    13.8138  15.0389  17.1488  19.0174  19.0174  19.6815  24.3261  24.3261
    25.4490  26.5523  27.1638  30.9547

          k =-0.5000 0.0000 0.0000 (   343 PWs)   bands (ev):

    -4.6501   2.7147   4.3387   4.3387   7.3748   9.3931  12.0142  12.0142
    14.3156  15.2696  17.6712  19.3271  19.3271  20.0334  23.7422  23.7422
    24.7593  26.7087  27.3306  31.3748

          k =-0.5500 0.0000 0.0000 (   347 PWs)   bands (ev):

    -4.4263   2.2632   4.1597   4.1597   7.2326   9.0226  12.4581  12.4581
    14.8380  15.5146  18.1949  19.6137  19.6137  20.4146  23.2249  23.2249
    24.0850  26.2743  28.0551  31.8966

          k =-0.6000 0.0000 0.0000 (   347 PWs)   bands (ev):

    -4.1826   1.8138   3.9976   3.9976   7.1088   8.6734  12.9117  12.9117
    15.3721  15.7930  18.7044  19.8272  19.8272  20.8299  22.8382  22.8382
    23.4279  25.8801  28.7026  31.9331

          k =-0.6500 0.0000 0.0000 (   343 PWs)   bands (ev):

    -3.9187   1.3663   3.8533   3.8533   7.0068   8.3508  13.3715  13.3715
    15.9084  16.0953  19.1780  19.8861  19.8861  21.2813  22.6672  22.6672
    22.7894  25.5577  29.2640  31.3432

          k =-0.7000 0.0000 0.0000 (   343 PWs)   bands (ev):

    -3.6368   0.9223   3.7270   3.7270   6.9256   8.0579  13.8364  13.8364
    16.4215  16.4411  19.5836  19.7255  19.7255  21.7702  22.1703  22.7683
    22.7683  25.3115  29.7451  30.6156

          k =-0.7500 0.0000 0.0000 (   343 PWs)   bands (ev):

    -3.3366   0.4848   3.6195   3.6195   6.8660   7.7978  14.3080  14.3080
    16.7743  16.9651  19.3879  19.3879  19.8822  21.5688  22.2964  23.1005
    23.1005  25.1881  29.8406  30.1641

          k =-0.8000 0.0000 0.0000 (   343 PWs)   bands (ev):

    -3.0188   0.0519   3.5311   3.5311   6.8324   7.5680  14.7804  14.7804
    17.1479  17.4764  18.9557  18.9557  20.0393  20.9908  22.8583  23.5846
    23.5846  25.2133  29.0828  29.5658

          k =-0.8500 0.0000 0.0000 (   343 PWs)   bands (ev):

    -2.6845  -0.3723   3.4621   3.4621   6.8228   7.3681  15.2525  15.2525
    17.5662  17.9755  18.4827  18.4827  20.0359  20.4333  23.4434  24.1633
    24.1633  25.3779  28.3531  28.7219

          k =-0.9000 0.0000 0.0000 (   343 PWs)   bands (ev):

    -2.3336  -0.7883   3.4127   3.4127   6.8415   7.2018  15.7130  15.7130
    17.9866  18.0105  18.0105  18.4460  19.8893  19.8988  24.0583  24.8085
    24.8085  25.5884  27.7722  27.8909

          k =-0.9500 0.0000 0.0000 (   342 PWs)   bands (ev):

    -1.9675  -1.1936   3.3830   3.3830   6.8880   7.0682  16.1262  16.1262
    17.5863  17.5863  18.4302  18.8869  19.3866  19.6289  24.6841  25.4940
    25.4940  25.6073  27.0970  27.0970

          k =-1.0000 0.0000 0.0000 (   342 PWs)   bands (ev):

    -1.5871  -1.5871   3.3731   3.3731   6.9633   6.9633  16.3355  16.3355
    17.3727  17.3727  18.8970  18.8970  19.2866  19.2866  25.2484  25.2484
    26.0357  26.0357  26.5194  26.5194

          k =-0.9875 0.0375 0.0000 (   342 PWs)   bands (ev):

    -1.6812  -1.4880   3.3546   3.3555   6.9762   7.0207  16.2496  16.2808
    17.2864  17.3199  18.8383  19.0775  19.2764  19.4659  25.0026  25.2717
    25.9376  26.0332  26.6199  26.6866

          k =-0.9750 0.0750 0.0000 (   344 PWs)   bands (ev):

    -1.7693  -1.3858   3.3002   3.3068   7.0581   7.1445  15.9505  16.1518
    17.0694  17.2813  18.7945  19.2640  19.4511  19.8546  24.5952  25.1769
    25.7092  26.0943  26.7824  26.9991

          k =-0.9625 0.1125 0.0000 (   346 PWs)   bands (ev):

    -1.8509  -1.2812   3.2146   3.2358   7.2037   7.3274  15.4858  15.9673
    16.8061  17.3232  18.7277  19.4052  19.7519  20.3907  24.1430  25.0195
    25.4723  26.1848  26.9661  27.2225

          k =-0.9500 0.1500 0.0000 (   348 PWs)   bands (ev):

    -1.9251  -1.1772   3.1051   3.1527   7.4049   7.5613  14.9404  15.7271
    16.5594  17.4045  18.6504  19.5360  20.1058  20.9863  23.6921  24.8066
    25.2949  26.2706  27.1733  27.3515

          k =-0.9375 0.1875 0.0000 (   352 PWs)   bands (ev):

    -1.9915  -1.0761   2.9798   3.0675   7.6524   7.8370  14.3594  15.4326
    16.3438  17.4886  18.5859  19.6697  20.4748  21.5986  23.2629  24.5593
    25.1813  26.3460  27.3986  27.4397

          k =-0.9250 0.2250 0.0000 (   352 PWs)   bands (ev):

    -2.0491  -0.9797   2.8462   2.9894   7.9391   8.1473  13.7707  15.1000
    16.1642  17.5541  18.5536  19.8052  20.8536  22.2122  22.8658  24.3123
    25.1187  26.4161  27.5077  27.6160

          k =-0.9125 0.2625 0.0000 (   352 PWs)   bands (ev):

    -2.0984  -0.8924   2.7102   2.9262   8.2584   8.4884  13.1783  14.7448
    16.0041  17.5703  18.5645  19.9436  21.2192  22.5232  22.7846  24.1188
    25.0958  26.4885  27.5498  27.7480

          k =-0.9000 0.3000 0.0000 (   353 PWs)   bands (ev):

    -2.1392  -0.8172   2.5763   2.8846   8.6037   8.8550  12.5907  14.3803
    15.8532  17.5256  18.6324  20.0842  21.5376  22.2664  23.1872  24.0890
    25.1185  26.5649  27.5404  27.6809

          k =-0.8875 0.3375 0.0000 (   351 PWs)   bands (ev):

    -2.1714  -0.7560   2.4483   2.8696   8.9732   9.2421  12.0164  14.0127
    15.7109  17.4214  18.7534  20.2243  21.6641  22.2488  23.2546  24.3655
    25.2171  26.6504  27.3938  27.4533

          k =-0.8750 0.3750 0.0000 (   351 PWs)   bands (ev):

    -2.1952  -0.7119   2.3291   2.8845   9.3610   9.6405  11.4630  13.6476
    15.5696  17.2666  18.9111  20.3658  21.5498  22.5146  23.1430  24.7099
    25.4590  26.7417  26.9549  27.2687

          k =-0.8625 0.4125 0.0000 (   353 PWs)   bands (ev):

    -2.2106  -0.6864   2.2207   2.9305   9.7630  10.0203  10.9618  13.2914
    15.4279  17.0731  19.0921  20.5066  21.4078  22.8514  22.9997  24.9285
    25.8797  26.4419  26.8521  26.9915

          k =-0.8500 0.4500 0.0000 (   353 PWs)   bands (ev):

    -2.2178  -0.6781   2.1249   3.0067  10.1251  10.1776  10.7707  12.9438
    15.2840  16.8492  19.2940  20.6512  21.2962  22.8687  23.1933  25.0772
    25.9123  26.3443  26.6901  26.9706

          k =-0.8375 0.4875 0.0000 (   353 PWs)   bands (ev):

    -2.2171  -0.6861   2.0431   3.1098   9.7364  10.5978  11.1100  12.6127
    15.1369  16.6033  19.5094  20.7982  21.2268  22.7510  23.5185  25.2092
    25.3782  26.1994  26.9760  27.1055

          k =-0.8250 0.5250 0.0000 (   355 PWs)   bands (ev):

    -2.2085  -0.7086   1.9763   3.2344   9.2739  11.0086  11.5631  12.3104
    14.9875  16.3387  19.7318  20.9457  21.1987  22.6512  23.7812  24.9012
    25.3199  25.8180  27.2494  27.4673

          k =-0.8125 0.5625 0.0000 (   355 PWs)   bands (ev):

    -2.1925  -0.7421   1.9253   3.3727   8.8280  11.3461  12.0450  12.1007
    14.8363  16.0683  19.9610  21.1024  21.2133  22.5700  23.7949  24.6667
    25.2123  25.6438  27.4112  27.9271

          k =-0.8000 0.6000 0.0000 (   350 PWs)   bands (ev):

    -2.1681  -0.7834   1.8909   3.5144   8.4192  11.3861  12.2076  12.5459
    14.6857  15.7893  20.1934  21.2672  21.2720  22.5052  23.4306  24.8232
    24.8308  25.7677  27.5777  28.3242

          k =-0.7875 0.6375 0.0000 (   353 PWs)   bands (ev):

    -2.1374  -0.8324   1.8735   3.6457   8.0579  11.1746  12.5770  13.0561
    14.5357  15.5074  20.4237  21.3504  21.4444  22.4254  22.9385  24.3976
    25.1095  25.9383  27.7426  28.5131

          k =-0.7750 0.6750 0.0000 (   353 PWs)   bands (ev):

    -2.0987  -0.8855   1.8734   3.7499   7.7653  10.9144  13.0050  13.5722
    14.3937  15.2302  20.6497  21.4529  21.6262  22.3283  22.4500  23.9991
    25.4169  26.1137  27.8967  28.3149

          k =-0.7625 0.7125 0.0000 (   353 PWs)   bands (ev):

    -2.0533  -0.9414   1.8909   3.8074   7.5590  10.6497  13.4223  14.0825
    14.2833  14.9683  20.8596  21.4969  21.8010  22.0605  22.1983  23.6640
    25.7310  26.2564  27.9951  28.0407

          k =-0.7500 0.7500 0.0000 (   347 PWs)   bands (ev):

    -2.0006  -0.9985   1.9259   3.8014   7.4567  10.3942  13.7177  14.3057
    14.4685  14.8452  20.9719  21.3159  21.8138  22.0368  22.1667  23.4290
    26.0479  26.3219  27.8357  27.9371

          k =-0.7125 0.7125 0.0000 (   351 PWs)   bands (ev):

    -2.1886  -0.8096   1.8317   3.9338   7.6090  11.1606  13.2596  13.8353
    14.1002  14.4450  21.0417  21.6975  21.7519  21.8135  22.3428  24.0604
    25.1028  26.3422  28.2791  28.5168

          k =-0.6750 0.6750 0.0000 (   353 PWs)   bands (ev):

    -2.4132  -0.5949   1.8105   4.0810   7.7780  11.9253  12.8184  13.4172
    13.7426  14.0708  20.7504  21.3122  21.9506  22.0647  22.8576  24.1605
    24.6522  26.3207  28.7335  28.7865

          k =-0.6375 0.6375 0.0000 (   353 PWs)   bands (ev):

    -2.6662  -0.3536   1.8569   4.2413   7.9625  12.3960  12.4843  13.2488
    13.4037  13.7252  20.3482  20.8894  22.1141  22.4175  23.3328  23.3553
    24.9590  26.3571  28.6257  29.3519

          k =-0.6000 0.6000 0.0000 (   357 PWs)   bands (ev):

    -2.9391  -0.0868   1.9630   4.4125   8.1584  11.9932  12.3389  13.0862
    13.4105  13.8175  19.9390  20.4973  21.7943  22.7517  23.0220  23.8119
    24.7251  26.6600  28.7948  29.9349

          k =-0.5625 0.5625 0.0000 (   347 PWs)   bands (ev):

    -3.2199   0.2075   2.1204   4.5923   8.3651  11.6155  11.9976  12.7965
    13.1352  14.6125  19.5475  20.1514  20.9985  23.0689  23.2349  24.1669
    24.2841  27.0832  29.2342  29.3935

          k =-0.5250 0.5250 0.0000 (   343 PWs)   bands (ev):

    -3.5018   0.5245   2.3213   4.7776   8.5689  11.2582  11.6416  12.5388
    12.8967  15.4086  19.1695  19.8718  20.1066  23.3562  23.4683  23.5616
    24.7495  27.4623  28.5768  29.8699

          k =-0.4875 0.4875 0.0000 (   343 PWs)   bands (ev):

    -3.7795   0.8659   2.5592   4.9648   8.7660  10.9230  11.2991  12.3183
    12.6995  16.1318  18.7804  19.2443  19.7064  22.7294  23.5652  23.9085
    25.2017  27.7882  27.7964  30.6300

          k =-0.4500 0.4500 0.0000 (   351 PWs)   bands (ev):

    -4.0477   1.2304   2.8285   5.1494   8.9441  10.6102  10.9737  12.1402
    12.5437  16.6758  18.1735  18.6332  19.7366  22.0021  23.6324  24.2598
    25.6426  27.1436  28.0928  29.8455

          k =-0.4125 0.4125 0.0000 (   343 PWs)   bands (ev):

    -4.3010   1.6201   3.1247   5.3289   9.0964  10.3232  10.6765  12.0163
    12.4430  16.9464  17.3559  18.3034  20.0287  21.3635  23.4972  24.6058
    26.0985  26.7698  28.3955  28.9654

          k =-0.3750 0.3750 0.0000 (   345 PWs)   bands (ev):

    -4.5393   2.0308   3.4431   5.4980   9.2085  10.0597  10.3948  11.9442
    12.3955  16.5367  16.9375  18.0414  20.1907  21.1767  23.0765  24.8963
    26.5535  26.6969  28.1664  28.6709

          k =-0.3375 0.3375 0.0000 (   341 PWs)   bands (ev):

    -4.7589   2.4647   3.7793   5.6530   9.2769   9.8222  10.1385  11.9154
    12.4082  15.7627  16.7539  17.8232  19.7589  21.8319  22.4758  25.0827
    26.8525  27.0144  27.5297  28.9474

          k =-0.3000 0.3000 0.0000 (   345 PWs)   bands (ev):

    -4.9589   2.9166   4.1282   5.7907   9.2992   9.6079   9.8979  11.8974
    12.4741  15.0619  16.4688  17.6449  19.2436  21.7769  22.7366  24.9986
    27.1400  27.1979  27.4789  29.2086

          k =-0.2625 0.2625 0.0000 (   345 PWs)   bands (ev):

    -5.1372   3.3873   4.4841   5.9090   9.2877   9.4185   9.6808  11.8348
    12.5972  14.4866  16.1231  17.5081  18.7904  21.0526  23.7296  24.6094
    27.2424  27.4984  27.9511  29.4586

          k =-0.2250 0.2250 0.0000 (   341 PWs)   bands (ev):

    -5.2926   3.8729   4.8401   6.0074   9.2487   9.2559   9.4834  11.6482
    12.7767  14.0994  15.7438  17.4160  18.4160  20.3322  24.0493  24.7656
    27.5244  27.9016  28.4472  29.7056

          k =-0.1875 0.1875 0.0000 (   335 PWs)   bands (ev):

    -5.4253   4.3692   5.1867   6.0860   9.1166   9.2003   9.3062  11.3017
    13.0047  13.9231  15.3557  17.3710  18.1194  19.6488  23.4518  25.8169
    27.9080  28.3101  28.9400  29.9234

          k =-0.1500 0.1500 0.0000 (   333 PWs)   bands (ev):

    -5.5347   4.8653   5.5124   6.1461   9.0023   9.1398   9.1472  10.8427
    13.2620  13.8957  14.9874  17.3684  17.8943  19.0068  22.8843  26.8670
    28.3330  28.7080  29.4144  30.1144

          k =-0.1125 0.1125 0.0000 (   333 PWs)   bands (ev):

    -5.6204   5.3466   5.8013   6.1900   8.9134   9.0094   9.0670  10.3600
    13.5347  13.9391  14.6657  17.4011  17.7275  18.4346  22.3862  27.8698
    28.7680  29.0729  29.8729  30.2841

          k =-0.0750 0.0750 0.0000 (   337 PWs)   bands (ev):

    -5.6826   5.7823   6.0329   6.2173   8.8497   8.8988   8.9734   9.9417
    13.7910  13.9979  14.4144  17.4544  17.6107  17.9590  21.9914  28.7479
    29.1768  29.3299  30.2934  30.4456

          k =-0.0375 0.0375 0.0000 (   337 PWs)   bands (ev):

    -5.7195   6.1118   6.1863   6.2341   8.8116   8.8251   8.8600   9.6725
    13.9845  14.0423  14.2552  17.5037  17.5444  17.6377  21.7343  29.3889
    29.4973  29.5307  30.6277  30.6381

          k = 0.0000 0.0000 0.0000 (   339 PWs)   bands (ev):

    -5.7322   6.2396   6.2396   6.2396   8.7988   8.7988   8.7988   9.5859
    14.0584  14.0584  14.2001  17.5213  17.5213  17.5213  21.6445  29.6020
    29.6020  29.6020  30.7681  30.7681

     Writing all to output data dir ./output/Si.save/ :
     XML data file, pseudopotentials, collected wavefunctions

     init_run     :      0.06s CPU      0.06s WALL (       1 calls)
     electrons    :     10.98s CPU     11.37s WALL (       1 calls)

     Called by init_run:
     wfcinit      :      0.00s CPU      0.00s WALL (       1 calls)
     potinit      :      0.00s CPU      0.00s WALL (       1 calls)
     hinit0       :      0.05s CPU      0.05s WALL (       1 calls)

     Called by electrons:
     c_bands      :     10.98s CPU     11.37s WALL (       1 calls)
     v_of_rho     :      0.00s CPU      0.00s WALL (       1 calls)

     Called by c_bands:
     init_us_2    :      0.01s CPU      0.01s WALL (      81 calls)
     ccgdiagg     :     10.27s CPU     10.62s WALL (     208 calls)
     wfcrot       :      0.68s CPU      0.69s WALL (     208 calls)

     Called by *cgdiagg:
     h_psi        :      9.17s CPU      9.40s WALL (   40619 calls)

     Called by h_psi:
     h_psi:calbec :      0.94s CPU      0.97s WALL (   40619 calls)
     vloc_psi     :      6.64s CPU      6.74s WALL (   40619 calls)
     add_vuspsi   :      1.52s CPU      1.55s WALL (   40619 calls)
     hs_1psi      :      8.61s CPU      8.88s WALL (   40411 calls)
     s_1psi       :      0.94s CPU      0.99s WALL (   40411 calls)

     General routines
     calbec       :      1.81s CPU      1.84s WALL (   81030 calls)
     fft          :      0.00s CPU      0.00s WALL (      11 calls)
     fftw         :      5.92s CPU      5.97s WALL (   89142 calls)
     davcio       :      0.00s CPU      0.04s WALL (     162 calls)


     PWSCF        :     11.10s CPU     11.55s WALL


   This run was terminated on:  23:59:16  20Aug2026            

=------------------------------------------------------------------------------=
   JOB DONE.
=------------------------------------------------------------------------------=
