
     Program PWSCF v.7.6-dev starts on 20Aug2026 at 23:58:57 

     This program is part of the open-source Quantum ESPRESSO suite
     for quantum simulation of materials; please cite
         "P. Giannozzi et al., J. Phys.:Condens. Matter 21 395502 (2009);
         "P. Giannozzi et al., J. Phys.:Condens. Matter 29 465901 (2017);
         "P. Giannozzi et al., J. Chem. Phys. 152 154105 (2020);
          URL http://www.quantum-espresso.org", 
     in publications or presentations arising from this work. More details at
     http://www.quantum-espresso.org/quote

     Serial version
     0 MiB available memory on the printing compute node when the environment starts

     Waiting for input...
     Reading input from standard input

     Current dimensions of program PWSCF are:
     Max number of different atomic species (ntypx) = 10
     Max number of k-points (npk) =  40000
     Max angular momentum in pseudopotentials (lmaxx) =  4


     G-vector sticks info
     --------------------
     sticks:   dense  smooth     PW     G-vecs:    dense   smooth      PW
     Sum         253     253     85                 2741     2741     537

     Using Slab Decomposition



     bravais-lattice index     =            2
     lattice parameter (alat)  =      10.2630  a.u.
     unit-cell volume          =     270.2483 (a.u.)^3
     number of atoms/cell      =            2
     number of atomic types    =            1
     number of electrons       =         8.00
     number of Kohn-Sham states=            4
     kinetic-energy cutoff     =      18.0000  Ry
     charge density cutoff     =      72.0000  Ry
     scf convergence threshold =      1.0E-08
     mixing beta               =       0.7000
     number of iterations used =            8  plain     mixing
     Exchange-correlation= PBE
                           (   1   4   3   4   0   0   0)

     celldm(1)=  10.263000  celldm(2)=   0.000000  celldm(3)=   0.000000
     celldm(4)=   0.000000  celldm(5)=   0.000000  celldm(6)=   0.000000

     crystal axes: (cart. coord. in units of alat)
               a(1) = (  -0.500000   0.000000   0.500000 )  
               a(2) = (   0.000000   0.500000   0.500000 )  
               a(3) = (  -0.500000   0.500000   0.000000 )  

     reciprocal axes: (cart. coord. in units 2 pi/alat)
               b(1) = ( -1.000000 -1.000000  1.000000 )  
               b(2) = (  1.000000  1.000000  1.000000 )  
               b(3) = ( -1.000000  1.000000 -1.000000 )  


     PseudoPot. # 1 for Si read from file:
     ./pseudo/Si.upf
     MD5 check sum: 02fab3f35e82123ef5bf1cb05d5b1a5e
     Pseudo is Norm-conserving + core correction, Zval =  4.0
     Generated using ONCVPSP code by D. R. Hamann
     Using radial grid of 1510 points,  6 beta functions with: 
                l(1) =   0
                l(2) =   0
                l(3) =   1
                l(4) =   1
                l(5) =   2
                l(6) =   2

     atomic species   valence    mass     pseudopotential
     Si                4.00    28.08600     Si( 1.00)

     48 Sym. Ops., with inversion, found (24 have fractional translation)



   Cartesian axes

     site n.     atom                  positions (alat units)
         1        Si     tau(   1) = (   0.0000000   0.0000000   0.0000000  )
         2        Si     tau(   2) = (   0.2500000   0.2500000   0.2500000  )

     number of k points=    10
                       cart. coord. in units 2pi/alat
        k(    1) = (  -0.1250000   0.1250000   0.1250000), wk =   0.0625000
        k(    2) = (  -0.3750000   0.3750000  -0.1250000), wk =   0.1875000
        k(    3) = (   0.3750000  -0.3750000   0.6250000), wk =   0.1875000
        k(    4) = (   0.1250000  -0.1250000   0.3750000), wk =   0.1875000
        k(    5) = (  -0.1250000   0.6250000   0.1250000), wk =   0.1875000
        k(    6) = (   0.6250000  -0.1250000   0.8750000), wk =   0.3750000
        k(    7) = (   0.3750000   0.1250000   0.6250000), wk =   0.3750000
        k(    8) = (  -0.1250000  -0.8750000   0.1250000), wk =   0.1875000
        k(    9) = (  -0.3750000   0.3750000   0.3750000), wk =   0.0625000
        k(   10) = (   0.3750000  -0.3750000   1.1250000), wk =   0.1875000

     Dense  grid:     2741 G-vectors     FFT dimensions: (  20,  20,  20)

     Estimated max dynamical RAM per process >       2.84 MB

     Initial potential from superposition of free atoms

     starting charge       7.9988, renormalised to       8.0000
     Starting wfcs are    8 randomized atomic wfcs

     total cpu time spent up to now is        0.2 secs

     Self-consistent Calculation

     iteration #  1     ecut=    18.00 Ry     beta= 0.70
     CG style diagonalization
     ethr =  1.00E-02,  avg # of iterations =  3.0

     Threshold (ethr) on eigenvalues was too large:
     Diagonalizing with lowered threshold

     CG style diagonalization
     ethr =  7.14E-04,  avg # of iterations =  2.1

     total cpu time spent up to now is        0.2 secs

     total energy              =     -16.91849730 Ry
     estimated scf accuracy    <       0.05451044 Ry

     iteration #  2     ecut=    18.00 Ry     beta= 0.70
     CG style diagonalization
     ethr =  6.81E-04,  avg # of iterations =  3.0

     total cpu time spent up to now is        0.3 secs

     total energy              =     -16.92023900 Ry
     estimated scf accuracy    <       0.00277474 Ry

     iteration #  3     ecut=    18.00 Ry     beta= 0.70
     CG style diagonalization
     ethr =  3.47E-05,  avg # of iterations =  3.7

     total cpu time spent up to now is        0.3 secs

     total energy              =     -16.92084528 Ry
     estimated scf accuracy    <       0.00009134 Ry

     iteration #  4     ecut=    18.00 Ry     beta= 0.70
     CG style diagonalization
     ethr =  1.14E-06,  avg # of iterations =  4.3

     total cpu time spent up to now is        0.4 secs

     total energy              =     -16.92088597 Ry
     estimated scf accuracy    <       0.00001141 Ry

     iteration #  5     ecut=    18.00 Ry     beta= 0.70
     CG style diagonalization
     ethr =  1.43E-07,  avg # of iterations =  3.6

     total cpu time spent up to now is        0.4 secs

     total energy              =     -16.92088758 Ry
     estimated scf accuracy    <       0.00000106 Ry

     iteration #  6     ecut=    18.00 Ry     beta= 0.70
     CG style diagonalization
     ethr =  1.33E-08,  avg # of iterations =  4.0

     total cpu time spent up to now is        0.5 secs

     total energy              =     -16.92088777 Ry
     estimated scf accuracy    <       0.00000008 Ry

     iteration #  7     ecut=    18.00 Ry     beta= 0.70
     CG style diagonalization
     ethr =  9.38E-10,  avg # of iterations =  4.3

     total cpu time spent up to now is        0.5 secs

     End of self-consistent calculation

          k =-0.1250 0.1250 0.1250 (   335 PWs)   bands (ev):

    -5.5272   4.6356   5.9485   5.9485

          k =-0.3750 0.3750-0.1250 (   345 PWs)   bands (ev):

    -4.4817   1.6035   3.9193   5.4581

          k = 0.3750-0.3750 0.6250 (   350 PWs)   bands (ev):

    -3.3144  -0.5210   3.9502   4.6666

          k = 0.1250-0.1250 0.3750 (   344 PWs)   bands (ev):

    -4.9904   3.0067   4.9124   4.9901

          k =-0.1250 0.6250 0.1250 (   342 PWs)   bands (ev):

    -3.9395   1.2893   3.5583   4.0192

          k = 0.6250-0.1250 0.8750 (   353 PWs)   bands (ev):

    -2.2639  -0.7045   2.1675   3.2677

          k = 0.3750 0.1250 0.6250 (   348 PWs)   bands (ev):

    -3.5144   0.3874   2.9080   4.2997

          k =-0.1250-0.8750 0.1250 (   348 PWs)   bands (ev):

    -2.4402  -0.6008   2.7914   3.5431

          k =-0.3750 0.3750 0.3750 (   353 PWs)   bands (ev):

    -4.0399   0.2804   5.1434   5.1434

          k = 0.3750-0.3750 1.1250 (   355 PWs)   bands (ev):

    -2.8101  -0.4137   2.2356   4.3414

     highest occupied level (ev):     5.9485

!    total energy              =     -16.92088780 Ry
     estimated scf accuracy    <          4.5E-11 Ry

     The total energy is the sum of the following terms:
     one-electron contribution =       4.96354214 Ry
     hartree contribution      =       1.09444910 Ry
     xc contribution           =      -6.18286050 Ry
     ewald contribution        =     -16.79601854 Ry

     convergence has been achieved in   7 iterations

     Writing all to output data dir ./output/Si.save/ :
     XML data file, charge density, pseudopotentials, collected wavefunctions

     init_run     :      0.08s CPU      0.10s WALL (       1 calls)
     electrons    :      0.33s CPU      0.36s WALL (       1 calls)

     Called by init_run:
     wfcinit      :      0.01s CPU      0.03s WALL (       1 calls)
     potinit      :      0.01s CPU      0.01s WALL (       1 calls)
     hinit0       :      0.05s CPU      0.06s WALL (       1 calls)

     Called by electrons:
     c_bands      :      0.28s CPU      0.30s WALL (       8 calls)
     sum_band     :      0.03s CPU      0.04s WALL (       8 calls)
     v_of_rho     :      0.02s CPU      0.03s WALL (       8 calls)
     mix_rho      :      0.00s CPU      0.00s WALL (       8 calls)

     Called by c_bands:
     init_us_2    :      0.01s CPU      0.01s WALL (     170 calls)
     ccgdiagg     :      0.22s CPU      0.24s WALL (      80 calls)
     wfcrot       :      0.06s CPU      0.07s WALL (      70 calls)

     Called by *cgdiagg:
     h_psi        :      0.24s CPU      0.26s WALL (     953 calls)

     Called by h_psi:
     h_psi:calbec :      0.01s CPU      0.02s WALL (     953 calls)
     vloc_psi     :      0.19s CPU      0.21s WALL (     953 calls)
     add_vuspsi   :      0.04s CPU      0.04s WALL (     953 calls)
     hs_1psi      :      0.19s CPU      0.21s WALL (     883 calls)
     s_1psi       :      0.02s CPU      0.02s WALL (     883 calls)

     General routines
     calbec       :      0.03s CPU      0.04s WALL (    1836 calls)
     fft          :      0.01s CPU      0.01s WALL (      81 calls)
     ffts         :      0.00s CPU      0.00s WALL (       8 calls)
     fftw         :      0.19s CPU      0.20s WALL (    2726 calls)


     PWSCF        :      0.45s CPU      0.54s WALL


   This run was terminated on:  23:58:57  20Aug2026            

=------------------------------------------------------------------------------=
   JOB DONE.
=------------------------------------------------------------------------------=
